55560
10 16 734
16 2 929
2 14 433
14 9 471
9 53 1071
53 23 388
23 21 176
21 17 638
17 48 415
48 49 761
49 19 934
19 13 1784
13 41 686
41 32 362
32 44 676
44 8 383
8 38 368
38 50 1180
50 20 763
20 24 740
24 35 296
35 5 323
5 37 467
37 7 517
7 51 770
51 40 1042
40 43 1279
43 3 1096
3 6 385
6 28 404
28 55 487
55 26 397
26 54 967
54 34 401
34 47 702
47 12 1082
12 30 1291
30 4 380
4 18 606
18 42 2089
42 33 4807
33 1 7621
1 27 4123
27 31 4460
31 25 299
25 11 545
11 45 436
45 52 722
52 15 631
15 36 679
36 46 402
46 39 214
39 29 1087
29 22 544
22 10 117
